p edge 600 2988
1 296
1 3
1 2
1 459
1 189
2 50
2 3
2 210
2 447
2 1
3 4
3 91
3 385
3 370
3 562
4 375
4 5
4 168
4 31
5 6
5 38
5 66
5 298
5 322
6 208
6 178
6 236
6 7
6 368
7 339
7 482
7 59
7 68
7 8
8 187
8 9
8 551
8 135
8 498
9 245
9 10
9 8
9 517
9 592
10 241
10 93
10 11
10 106
10 466
11 12
11 371
11 551
11 581
11 180
12 13
12 45
12 263
12 599
12 153
13 405
13 307
13 112
13 376
13 14
14 15
14 1
14 490
14 45
14 5
15 413
15 438
15 16
15 406
15 509
16 304
16 327
16 7
16 17
16 178
17 18
17 296
17 144
17 517
17 181
18 101
18 19
18 231
18 287
18 226
19 554
19 321
19 190
19 103
19 20
20 339
20 21
20 258
20 512
20 223
21 576
21 587
21 275
21 420
21 22
22 493
22 298
22 73
22 23
22 60
23 328
23 24
23 115
23 117
23 108
24 25
24 573
24 223
24 265
24 390
25 558
25 88
25 450
25 540
25 26
26 274
26 60
26 71
26 66
26 27
27 28
27 72
27 487
27 298
27 225
28 556
28 73
28 516
28 29
28 438
29 582
29 30
29 267
29 343
29 478
30 403
30 31
30 511
30 580
30 257
31 42
31 32
31 251
31 315
31 409
32 494
32 582
32 33
32 123
32 258
33 294
33 570
33 148
33 34
33 581
34 226
34 353
34 558
34 544
34 35
35 21
35 567
35 595
35 181
35 36
36 348
36 46
36 164
36 37
36 197
37 558
37 337
37 109
37 38
37 556
38 39
38 297
38 291
38 172
38 559
39 40
39 78
39 24
39 235
39 203
40 268
40 471
40 463
40 41
40 221
41 410
41 479
41 42
41 367
41 522
42 585
42 160
42 495
42 43
42 96
43 44
43 304
43 322
43 373
43 457
44 45
44 328
44 95
44 468
44 91
45 534
45 46
45 321
45 569
45 312
46 362
46 299
46 47
46 303
46 134
47 433
47 157
47 267
47 48
47 144
48 240
48 107
48 49
48 70
48 519
49 560
49 456
49 50
49 440
49 503
50 7
50 457
50 63
50 51
50 391
51 513
51 539
51 343
51 52
51 195
52 429
52 559
52 480
52 217
52 53
53 573
53 214
53 306
53 331
53 54
54 270
54 303
54 499
54 55
54 599
55 227
55 171
55 408
55 232
55 56
56 299
56 143
56 303
56 62
56 57
57 58
57 336
57 596
57 590
57 400
58 46
58 29
58 503
58 59
58 148
59 536
59 60
59 284
59 434
59 221
60 90
60 294
60 1
60 61
60 439
61 537
61 62
61 63
61 376
61 186
62 63
62 304
62 273
62 245
62 352
63 85
63 88
63 196
63 64
63 485
64 345
64 211
64 521
64 375
64 65
65 204
65 118
65 66
65 443
65 426
66 60
66 1
66 330
66 67
66 530
67 41
67 235
67 450
67 150
67 68
68 360
68 596
68 69
68 18
68 544
69 316
69 578
69 378
69 70
69 107
70 71
70 304
70 314
70 216
70 74
71 61
71 57
71 72
71 164
71 110
72 73
72 181
72 249
72 113
72 191
73 141
73 543
73 74
73 386
73 177
74 539
74 75
74 378
74 170
74 401
75 76
75 113
75 405
75 338
75 480
76 525
76 77
76 40
76 22
76 408
77 515
77 96
77 519
77 329
77 78
78 551
78 24
78 79
78 69
78 217
79 100
79 530
79 557
79 80
79 38
80 130
80 81
80 221
80 295
80 353
81 82
81 368
81 71
81 534
81 164
82 83
82 41
82 432
82 42
82 435
83 100
83 36
83 31
83 371
83 84
84 499
84 85
84 127
84 197
84 461
85 486
85 550
85 86
85 199
85 551
86 263
86 87
86 308
86 156
86 371
87 88
87 401
87 333
87 307
87 187
88 184
88 87
88 138
88 576
88 89
89 90
89 40
89 457
89 10
89 421
90 25
90 443
90 91
90 270
90 81
91 133
91 583
91 338
91 92
91 598
92 93
92 14
92 529
92 315
92 27
93 76
93 379
93 17
93 94
93 405
94 109
94 177
94 427
94 466
94 95
95 578
95 587
95 132
95 338
95 96
96 205
96 480
96 97
96 551
96 396
97 98
97 304
97 88
97 232
97 558
98 99
98 551
98 272
98 123
98 531
99 518
99 187
99 351
99 508
99 100
100 178
100 397
100 264
100 101
100 112
101 102
101 59
101 391
101 155
101 73
102 283
102 581
102 333
102 222
102 103
103 104
103 497
103 20
103 79
103 433
104 524
104 323
104 105
104 469
104 436
105 444
105 353
105 106
105 173
105 552
106 255
106 427
106 128
106 107
106 228
107 119
107 199
107 214
107 108
107 265
108 10
108 221
108 109
108 309
108 599
109 369
109 145
109 308
109 587
109 110
110 65
110 111
110 449
110 446
110 168
111 212
111 112
111 57
111 471
111 193
112 590
112 144
112 164
112 113
112 408
113 354
113 56
113 71
113 114
113 154
114 427
114 201
114 115
114 27
114 600
115 1
115 529
115 144
115 31
115 116
116 117
116 268
116 72
116 125
116 335
117 472
117 526
117 196
117 480
117 118
118 562
118 232
118 338
118 175
118 119
119 120
119 237
119 454
119 453
119 219
120 306
120 598
120 121
120 17
120 558
121 73
121 384
121 97
121 122
121 436
122 321
122 410
122 38
122 123
122 158
123 8
123 124
123 483
123 121
123 586
124 337
124 125
124 201
124 150
124 384
125 298
125 126
125 267
125 169
125 201
126 405
126 127
126 377
126 62
126 335
127 286
127 344
127 128
127 63
127 166
128 129
128 320
128 567
128 91
128 80
129 118
129 130
129 596
129 582
129 244
130 268
130 299
130 186
130 131
130 35
131 214
131 206
131 56
131 132
131 248
132 452
132 14
132 266
132 591
132 133
133 134
133 427
133 208
133 495
133 388
134 230
134 585
134 135
134 273
134 284
135 106
135 552
135 136
135 344
135 380
136 129
136 220
136 137
136 363
136 329
137 395
137 138
137 385
137 100
137 547
138 408
138 182
138 253
138 139
138 192
139 545
139 527
139 484
139 33
139 140
140 141
140 154
140 558
140 588
140 185
141 124
141 508
141 62
141 142
141 235
142 143
142 267
142 359
142 422
143 145
143 520
143 578
143 144
143 523
144 124
144 199
144 369
144 145
144 265
145 294
145 153
145 531
145 146
145 469
146 62
146 594
146 147
146 70
146 221
147 116
147 148
147 541
147 392
147 393
148 400
148 64
148 187
148 478
148 149
149 451
149 578
149 525
149 150
149 170
150 437
150 573
150 359
150 315
150 151
151 152
151 283
151 371
151 103
151 569
152 421
152 212
152 456
152 113
152 153
153 154
153 493
153 172
153 403
153 396
154 534
154 56
154 155
154 441
154 398
155 255
155 173
155 156
155 5
155 195
156 443
156 469
156 157
156 492
156 477
157 280
157 474
157 207
157 158
157 374
158 376
158 98
158 159
158 92
158 96
159 595
159 75
159 153
159 160
159 383
160 401
160 194
160 387
160 161
160 31
161 17
161 73
161 263
161 353
161 162
162 479
162 586
162 552
162 163
162 500
163 284
163 175
163 164
163 549
163 231
164 165
164 321
164 458
164 314
164 308
165 501
165 239
165 430
165 166
165 197
166 9
166 32
166 167
166 292
166 160
167 178
167 578
167 168
167 411
167 434
168 169
168 204
168 38
168 290
168 160
169 159
169 514
169 286
169 281
169 170
170 410
170 326
170 474
170 171
170 114
171 167
171 178
171 172
171 385
171 226
172 330
172 173
172 286
172 305
172 290
173 377
173 174
173 322
173 393
173 408
174 291
174 149
174 151
174 175
174 502
175 255
175 176
175 502
175 245
175 32
176 131
176 452
176 349
176 177
176 217
177 385
177 485
177 178
177 96
177 72
178 154
178 577
178 179
178 475
178 285
179 11
179 177
179 173
179 564
179 180
180 353
180 181
180 59
180 3
180 394
181 72
181 217
181 182
181 103
181 544
182 474
182 125
182 263
182 486
182 183
183 519
183 161
183 184
183 461
183 272
184 219
184 52
184 176
184 185
184 561
185 192
185 527
185 486
185 186
185 173
186 425
186 553
186 187
186 346
186 191
187 358
187 455
187 346
187 440
187 188
188 189
188 302
188 273
188 517
188 265
189 397
189 407
189 288
189 190
189 468
190 164
190 210
190 319
190 191
190 95
191 190
191 591
191 17
191 192
191 549
192 172
192 193
192 457
192 501
192 137
193 194
193 388
193 463
193 196
193 315
194 86
194 13
194 100
194 301
194 195
195 283
195 436
195 239
195 196
195 339
196 417
196 147
196 78
196 197
196 83
197 198
197 183
197 395
197 304
197 586
198 531
198 257
198 199
198 599
198 332
199 311
199 187
199 63
199 200
199 562
200 596
200 373
200 582
200 201
200 414
201 256
201 202
201 335
201 228
201 585
202 334
202 394
202 250
202 377
202 203
203 204
203 452
203 115
203 64
203 216
204 434
204 205
204 173
204 476
204 480
205 206
205 409
205 343
205 309
205 472
206 41
206 456
206 20
206 207
206 405
207 570
207 310
207 208
207 414
207 452
208 501
208 88
208 402
208 209
208 348
209 291
209 116
209 441
209 487
209 210
210 211
210 95
210 553
210 183
210 26
211 377
211 178
211 446
211 212
211 383
212 251
212 213
212 277
212 183
212 235
213 191
213 435
213 214
213 62
213 461
214 136
214 276
214 215
214 358
214 473
215 495
215 173
215 216
215 463
215 314
216 505
216 217
216 249
216 408
216 384
217 428
217 95
217 218
217 48
217 120
218 183
218 376
218 42
218 127
218 219
219 14
219 301
219 464
219 44
219 220
220 401
220 280
220 436
220 200
220 221
221 556
221 340
221 436
221 222
221 37
222 223
222 423
222 487
222 315
222 259
223 363
223 228
223 554
223 224
223 464
224 583
224 238
224 225
224 272
224 292
225 436
225 226
225 490
225 185
226 432
226 404
226 530
226 227
226 136
227 228
227 117
227 25
227 569
227 529
228 229
228 224
228 577
228 113
228 570
229 593
229 339
229 230
229 155
229 90
230 268
230 294
230 231
230 245
230 516
231 334
231 356
231 232
231 383
231 483
232 446
232 399
232 16
232 233
232 148
233 234
233 406
233 597
233 154
233 257
234 222
234 522
234 249
234 235
234 367
235 236
235 88
235 278
235 180
235 25
236 445
236 428
236 237
236 439
236 460
237 219
237 238
237 167
237 441
237 133
238 21
238 274
238 239
238 5
238 591
239 252
239 25
239 369
239 400
239 240
240 466
240 473
240 322
240 241
240 493
241 360
241 242
241 318
241 114
241 25
242 517
242 180
242 243
242 403
242 493
243 507
243 246
243 50
243 244
243 86
244 414
244 245
244 546
244 341
244 69
245 129
245 246
245 393
245 473
245 226
246 407
246 538
246 35
246 159
246 247
247 209
247 499
247 263
247 327
247 248
248 339
248 249
248 455
248 516
248 439
249 257
249 377
249 470
249 250
249 121
250 113
250 251
250 570
250 147
250 487
251 451
251 489
251 599
251 393
251 252
252 587
252 72
252 253
252 203
252 574
253 520
253 254
253 592
253 137
253 453
254 583
254 255
254 152
254 357
254 477
255 256
255 480
255 529
255 538
255 67
256 531
256 439
256 257
256 243
256 570
257 238
257 392
257 474
257 372
257 258
258 439
258 101
258 239
258 259
258 471
259 314
259 368
259 364
259 297
259 260
260 582
260 74
260 224
260 261
260 566
261 419
261 529
261 517
261 225
261 262
262 79
262 263
262 120
262 597
262 62
263 269
263 50
263 549
263 264
263 161
264 265
264 99
264 261
264 583
264 109
265 450
265 53
265 517
265 266
265 576
266 328
266 267
266 92
266 496
266 30
267 314
267 23
267 352
267 172
267 268
268 102
268 598
268 301
268 348
268 269
269 270
269 569
269 197
269 395
269 49
270 510
270 261
270 420
270 271
270 41
271 222
271 191
271 588
271 454
271 272
272 273
272 242
272 208
272 325
272 525
273 23
273 189
273 138
273 274
273 88
274 257
274 476
274 366
274 219
274 275
275 541
275 276
275 254
275 39
275 130
276 277
276 341
276 283
276 401
276 383
277 21
277 145
277 543
277 389
277 278
278 199
278 279
278 155
278 274
278 379
279 546
279 280
279 558
279 358
279 521
280 211
280 104
280 81
280 281
280 262
281 446
281 259
281 11
281 356
281 282
282 283
282 198
282 63
282 253
282 342
283 284
283 230
283 90
283 578
283 570
284 285
284 529
284 33
284 557
284 143
285 189
285 361
285 567
285 286
285 115
286 581
286 287
286 398
286 263
286 545
287 510
287 123
287 319
287 593
287 288
288 112
288 211
288 416
288 338
288 289
289 99
289 597
289 422
289 290
289 259
290 576
290 598
290 330
290 397
290 291
291 478
291 432
291 398
291 292
291 384
292 441
292 408
292 93
292 545
292 293
293 294
293 107
293 74
293 91
293 429
294 360
294 426
294 158
294 1
294 295
295 430
295 249
295 296
295 408
295 364
296 580
296 287
296 4
296 455
296 297
297 298
297 87
297 56
297 569
297 432
298 299
298 317
298 102
298 81
298 291
299 300
299 226
299 27
299 556
299 287
300 301
300 524
300 438
300 404
300 361
301 159
301 302
301 483
301 11
301 17
302 557
302 577
302 516
302 394
302 303
303 105
303 304
303 6
303 75
303 45
304 106
304 305
304 270
304 469
304 26
305 146
305 306
305 261
305 248
305 127
306 542
306 94
306 307
306 2
306 403
307 548
307 308
307 167
307 249
307 372
308 148
308 450
308 201
308 309
308 274
309 215
309 316
309 118
309 310
309 451
310 427
310 199
310 449
310 518
310 311
311 22
311 92
311 187
311 312
311 151
312 269
312 313
312 488
312 109
312 52
313 200
313 314
313 467
313 238
313 256
314 310
314 182
314 486
314 315
315 475
315 232
315 316
315 104
315 228
316 527
316 86
316 346
316 490
316 317
317 491
317 318
317 213
317 140
317 158
318 278
318 228
318 341
318 319
318 176
319 550
319 252
319 320
319 272
319 269
320 471
320 411
320 334
320 221
320 321
321 3
321 451
321 454
321 221
321 322
322 323
322 408
322 469
322 471
322 185
323 463
323 103
323 183
323 536
323 324
324 195
324 140
324 325
324 179
324 26
325 506
325 330
325 326
325 344
325 358
326 580
326 369
326 221
326 508
326 327
327 306
327 238
327 597
327 475
327 328
328 581
328 61
328 214
328 365
328 329
329 584
329 562
329 48
329 366
329 330
330 331
330 249
330 563
330 139
330 268
331 166
331 332
331 433
331 482
331 220
332 565
332 289
332 333
332 569
332 168
333 163
333 334
333 382
333 403
333 365
334 375
334 347
334 292
334 271
334 335
335 213
335 520
335 336
335 325
335 20
336 337
336 456
336 481
336 471
336 359
337 123
337 393
337 529
337 142
337 338
338 89
338 598
338 339
338 72
338 576
339 195
339 340
339 134
339 64
339 187
340 25
340 22
340 273
340 360
340 341
341 555
341 589
341 105
341 342
342 320
342 91
342 261
342 343
342 562
343 86
343 555
343 302
343 486
343 344
344 345
344 543
344 571
344 592
344 133
345 355
345 184
345 151
345 332
345 346
346 398
346 315
346 347
346 507
346 141
347 228
347 348
347 355
347 533
347 470
348 359
348 349
348 178
348 35
348 155
349 185
349 156
349 94
349 288
349 350
350 329
350 351
350 74
350 567
350 555
351 428
351 75
351 553
351 352
351 277
352 353
352 278
352 461
352 212
352 142
353 354
353 415
353 263
353 432
353 443
354 577
354 374
354 361
354 355
354 498
355 593
355 383
355 460
355 356
355 47
356 159
356 357
356 394
356 99
356 119
357 372
357 358
357 527
357 4
357 451
358 52
358 182
358 117
358 108
358 359
359 360
359 186
359 546
359 349
359 422
360 40
360 382
360 410
360 361
360 276
361 313
361 114
361 245
361 362
361 547
362 542
362 272
362 363
362 164
363 306
363 305
363 364
363 419
363 380
364 365
364 409
364 567
364 147
364 565
365 366
365 385
365 20
365 228
365 512
366 397
366 367
366 307
366 586
366 80
367 593
367 368
367 55
367 355
367 362
368 523
368 525
368 570
368 59
368 369
369 248
369 370
369 292
369 400
370 199
370 371
370 299
370 242
370 16
371 372
371 186
371 201
371 182
371 401
372 373
372 320
372 271
372 44
372 319
373 510
373 138
373 388
373 374
373 488
374 524
374 375
374 88
374 202
374 181
375 171
375 376
375 486
375 485
375 594
376 104
376 417
376 377
376 492
376 298
377 378
377 176
377 554
377 555
377 225
378 175
378 379
378 101
378 83
378 487
379 40
379 105
379 423
379 380
379 436
380 419
380 125
380 417
380 381
380 231
381 388
381 482
381 382
381 343
381 431
382 383
382 480
382 119
382 319
382 35
383 472
383 565
383 421
383 339
383 384
384 141
384 385
384 149
384 263
384 41
385 361
385 349
385 386
385 22
385 46
386 327
386 380
386 517
386 387
386 94
387 52
387 485
387 238
387 443
387 388
388 11
388 80
388 389
388 136
388 148
389 390
389 512
389 176
389 38
389 273
390 392
390 155
390 268
390 391
390 367
391 495
391 392
391 430
391 311
391 289
392 468
392 393
392 589
392 599
392 86
393 330
393 521
393 69
393 394
393 525
394 395
394 571
394 142
394 34
394 481
395 396
395 140
395 597
395 226
395 369
396 546
396 397
396 520
396 500
396 545
397 494
397 258
397 171
397 568
397 398
398 558
398 94
398 351
398 399
398 167
399 245
399 221
399 302
399 400
399 337
400 14
400 408
400 142
400 401
400 329
401 552
401 402
401 500
401 557
401 556
402 545
402 216
402 304
402 403
402 72
403 36
403 404
403 543
403 380
403 65
404 289
404 107
404 546
404 211
404 405
405 406
405 98
405 539
405 559
405 571
406 161
406 507
406 419
406 508
406 407
407 133
407 501
407 131
407 408
407 378
408 28
408 400
408 409
408 553
408 124
409 410
409 329
409 435
409 594
409 142
410 74
410 477
410 147
410 483
410 411
411 412
411 70
411 383
411 12
411 424
412 456
412 413
412 70
412 172
412 491
413 414
413 418
413 116
413 397
413 260
414 415
414 333
414 221
414 291
414 431
415 401
415 416
415 274
415 130
415 357
416 425
416 596
416 379
416 417
416 259
417 112
417 56
417 190
417 418
417 250
418 419
418 553
418 105
418 135
418 375
419 184
419 567
419 420
419 45
419 106
420 457
420 128
420 316
420 347
420 421
421 501
421 13
421 71
421 422
421 221
422 541
422 31
422 423
422 378
422 249
423 329
423 142
423 424
423 128
423 122
424 104
424 425
424 285
424 242
424 160
425 351
425 364
425 572
425 491
425 426
426 64
426 137
426 235
426 427
426 37
427 44
427 277
427 441
427 428
427 387
428 429
428 253
428 244
428 184
428 329
429 33
429 411
429 496
429 330
429 430
430 405
430 37
430 431
430 562
430 447
431 311
431 312
431 40
431 432
431 365
432 433
432 418
432 205
432 450
432 315
433 434
433 77
433 484
433 43
433 270
434 500
434 37
434 435
434 388
434 252
435 246
435 436
435 497
435 225
435 378
436 337
436 280
436 140
436 248
436 437
437 438
437 545
437 321
437 81
437 512
438 439
438 119
438 441
438 566
438 203
439 440
439 516
439 580
439 139
439 277
440 202
440 441
440 149
440 522
440 264
441 251
441 239
441 232
441 442
441 226
442 443
442 107
442 142
442 187
442 424
443 385
443 92
443 471
443 94
443 444
444 254
444 103
444 445
444 485
444 277
445 122
445 446
445 503
445 357
445 212
446 447
446 518
446 191
446 389
446 568
447 209
447 178
447 535
447 504
447 448
448 49
448 37
448 59
448 411
448 449
449 450
449 597
449 341
449 165
449 588
450 360
450 451
450 179
450 91
450 416
451 395
451 76
451 487
451 452
451 288
452 183
452 453
452 344
452 512
452 86
453 288
453 434
453 454
453 575
453 364
454 455
454 282
454 55
454 14
454 119
455 588
455 539
455 456
455 47
455 219
456 205
456 457
456 162
456 107
456 549
457 388
457 12
457 255
457 458
457 150
458 526
458 28
458 436
458 459
458 476
459 442
459 372
459 433
459 460
459 547
460 248
460 43
460 367
460 268
460 461
461 545
461 462
461 436
461 481
461 570
462 314
462 532
462 543
462 463
462 474
463 464
463 153
463 263
463 115
463 421
464 95
464 300
464 348
464 465
464 523
465 442
465 257
465 327
465 231
465 466
466 99
466 594
466 382
466 467
466 231
467 383
467 49
467 347
467 468
467 286
468 207
468 417
468 469
468 354
468 8
469 113
469 396
469 476
469 211
469 470
470 230
470 471
470 44
470 223
470 14
471 320
471 128
471 214
471 472
471 124
472 14
472 227
472 473
472 155
472 80
473 474
473 343
473 510
473 505
473 352
474 214
474 406
474 377
474 475
474 65
475 380
475 575
475 476
475 529
475 157
476 477
476 100
476 428
476 11
476 460
477 395
477 323
477 478
477 201
477 307
478 351
478 290
478 479
478 315
478 418
479 173
479 331
479 109
479 504
479 480
480 599
480 449
480 186
480 481
480 61
481 482
481 343
481 117
481 323
481 379
482 155
482 123
482 483
482 167
482 42
483 554
483 292
483 252
483 484
483 539
484 474
484 444
484 366
484 485
484 340
485 578
485 2
485 81
485 63
485 486
486 487
486 295
486 120
486 40
486 536
487 253
487 488
487 500
487 476
487 102
488 291
488 217
488 202
488 573
488 489
489 475
489 402
489 333
489 319
489 490
490 491
490 452
490 127
490 276
490 7
491 239
491 432
491 492
491 186
491 522
492 354
492 359
492 513
492 493
492 176
493 473
493 85
493 127
493 494
493 518
494 334
494 45
494 596
494 495
494 62
495 496
495 349
495 299
495 133
495 256
496 497
496 440
496 576
496 599
496 436
497 3
497 498
497 395
497 408
497 370
498 97
498 61
498 87
498 499
498 195
499 441
499 500
499 65
499 523
499 486
500 298
500 195
500 501
500 528
500 565
501 502
501 403
501 430
501 246
501 258
502 440
502 503
502 362
502 432
502 477
503 587
503 459
503 264
503 504
503 260
504 554
504 134
504 32
504 505
504 168
505 506
505 74
505 558
505 23
505 540
506 406
506 544
506 284
506 507
506 88
507 54
507 19
507 490
507 508
507 417
508 509
508 553
508 461
508 355
508 213
509 481
509 510
509 188
509 165
509 120
510 24
510 342
510 314
510 367
510 511
511 530
511 197
511 286
511 175
511 512
512 513
512 317
512 98
512 16
512 104
513 45
513 514
513 385
513 232
513 307
514 255
514 187
514 515
514 76
514 181
515 516
515 198
515 3
515 426
515 467
516 281
516 96
516 426
516 405
516 517
517 518
517 228
517 564
517 352
517 318
518 245
518 566
518 519
518 184
518 437
519 44
519 419
519 65
519 520
519 503
520 589
520 316
520 77
520 521
520 436
521 536
521 522
521 34
521 573
521 81
522 417
522 523
522 230
522 310
522 386
523 596
523 319
523 524
523 333
523 55
524 452
524 412
524 544
524 525
524 347
525 23
525 526
525 169
525 599
526 14
526 527
526 140
526 72
526 4
527 65
527 583
527 267
527 528
527 15
528 598
528 361
528 529
528 238
528 216
529 38
529 8
529 138
529 476
529 530
530 110
530 89
530 118
530 531
531 386
531 195
531 532
531 566
531 271
532 92
532 305
532 91
532 533
532 452
533 534
533 530
533 182
533 226
533 588
534 410
534 41
534 535
534 452
534 445
535 20
535 536
535 139
535 8
535 420
536 534
536 47
536 140
536 100
536 537
537 278
537 386
537 538
537 224
537 457
538 125
538 370
538 490
538 539
538 485
539 250
539 431
539 364
539 540
539 330
540 315
540 502
540 541
540 62
540 478
541 224
541 243
541 282
541 127
541 542
542 178
542 63
542 543
542 138
542 484
543 171
543 451
543 441
543 439
543 544
544 306
544 175
544 302
544 545
544 234
545 425
545 477
545 546
545 260
545 599
546 203
546 116
546 547
546 346
546 569
547 123
547 548
547 111
547 120
547 67
548 228
548 331
548 562
548 549
548 380
549 40
549 85
549 162
549 550
549 210
550 551
550 82
550 3
550 111
550 37
551 552
551 299
551 89
551 87
551 65
552 560
552 39
552 553
552 154
552 504
553 30
553 43
553 554
553 346
553 37
554 458
554 324
554 185
554 555
554 221
555 581
555 430
555 141
555 556
555 540
556 557
556 171
556 53
556 550
556 360
557 409
557 558
557 177
557 519
557 407
558 559
558 433
558 363
558 240
559 373
559 186
559 192
559 349
559 560
560 127
560 561
560 598
560 411
560 120
561 258
561 229
561 504
561 97
561 562
562 363
562 426
562 135
562 563
562 3
563 553
563 248
563 503
563 564
563 335
564 193
564 565
564 228
564 294
564 160
565 382
565 394
565 566
565 7
565 530
566 20
566 567
566 132
566 284
566 239
567 293
567 592
567 568
567 26
568 23
568 214
568 283
568 517
568 569
569 113
569 21
569 385
569 494
569 570
570 223
570 258
570 588
570 571
570 472
571 572
571 163
571 73
571 561
571 23
572 148
572 60
572 573
572 435
572 77
573 350
573 164
573 574
573 384
573 74
574 575
574 84
574 50
574 346
574 162
575 414
575 286
575 444
575 576
575 353
576 432
576 115
576 353
576 274
576 577
577 578
577 49
577 183
577 525
577 346
578 517
578 322
578 498
578 579
578 38
579 13
579 580
579 553
579 264
579 158
580 52
580 498
580 551
580 528
580 581
581 244
581 582
581 175
581 449
581 495
582 109
582 437
582 583
582 77
582 422
583 434
583 433
583 169
583 584
583 355
584 585
584 548
584 531
584 366
584 277
585 482
585 586
585 168
585 52
585 212
586 262
586 410
586 384
586 189
586 587
587 139
587 4
587 360
587 85
587 588
588 451
588 435
588 589
588 127
588 70
589 444
589 189
589 140
589 320
589 590
590 382
590 442
590 591
590 154
590 308
591 404
591 434
591 457
591 592
591 551
592 424
592 510
592 593
592 120
592 398
593 286
593 15
593 594
593 198
593 172
594 324
594 71
594 192
594 595
594 125
595 596
595 62
595 421
595 588
595 492
596 34
596 85
596 597
596 336
597 248
597 549
597 466
597 511
597 598
598 586
598 17
598 599
598 2
598 397
599 506
599 490
599 90
599 600
599 578
600 12
600 264
600 146
600 1
600 207
